c Reduced graph for anna_3 generated by Cyril Grelier
p edge 67 298
e 1 2
e 1 3
e 1 4
e 1 5
e 1 6
e 1 7
e 1 8
e 1 9
e 1 10
e 1 11
e 1 12
e 1 13
e 1 14
e 1 15
e 1 16
e 1 18
e 1 19
e 1 20
e 1 22
e 1 23
e 1 26
e 1 28
e 1 29
e 1 34
e 1 35
e 1 37
e 1 39
e 1 51
e 1 53
e 1 54
e 1 56
e 1 58
e 1 59
e 1 63
e 1 65
e 1 66
e 1 67
e 2 3
e 2 4
e 2 5
e 2 6
e 2 7
e 2 8
e 2 9
e 2 10
e 2 11
e 2 12
e 2 14
e 2 16
e 2 17
e 2 19
e 2 20
e 2 21
e 2 24
e 2 25
e 2 31
e 2 32
e 2 35
e 2 37
e 2 40
e 2 41
e 2 42
e 2 45
e 2 47
e 2 49
e 2 50
e 2 52
e 2 57
e 2 60
e 2 62
e 2 64
e 3 4
e 3 5
e 3 6
e 3 7
e 3 8
e 3 9
e 3 10
e 3 11
e 3 12
e 3 13
e 3 14
e 3 15
e 3 16
e 3 17
e 3 18
e 3 19
e 3 20
e 3 22
e 3 23
e 3 26
e 3 29
e 3 30
e 3 31
e 3 35
e 3 37
e 3 40
e 3 41
e 3 42
e 3 51
e 3 59
e 4 5
e 4 6
e 4 7
e 4 8
e 4 9
e 4 10
e 4 11
e 4 12
e 4 13
e 4 14
e 4 15
e 4 18
e 4 19
e 4 20
e 4 21
e 4 22
e 4 23
e 4 26
e 4 28
e 4 29
e 4 32
e 4 34
e 4 39
e 4 43
e 4 46
e 5 6
e 5 8
e 5 11
e 5 13
e 5 14
e 5 15
e 5 16
e 5 17
e 5 19
e 5 21
e 5 24
e 5 27
e 5 30
e 5 31
e 5 32
e 5 33
e 5 36
e 5 38
e 5 40
e 5 42
e 5 44
e 5 48
e 5 49
e 5 52
e 6 7
e 6 8
e 6 9
e 6 10
e 6 12
e 6 13
e 6 14
e 6 15
e 6 18
e 6 19
e 6 20
e 6 22
e 6 23
e 6 26
e 6 28
e 6 34
e 6 39
e 6 55
e 6 61
e 7 8
e 7 9
e 7 10
e 7 11
e 7 12
e 7 13
e 7 15
e 7 18
e 7 19
e 7 20
e 7 22
e 7 23
e 7 26
e 7 40
e 7 41
e 8 9
e 8 10
e 8 17
e 8 18
e 8 22
e 8 23
e 8 24
e 8 30
e 8 31
e 8 42
e 8 44
e 8 48
e 9 10
e 9 12
e 9 13
e 9 15
e 9 18
e 9 19
e 9 22
e 9 23
e 9 55
e 9 61
e 10 16
e 10 18
e 10 22
e 10 23
e 10 35
e 10 37
e 11 14
e 11 20
e 11 21
e 11 32
e 11 53
e 11 54
e 11 56
e 11 58
e 12 14
e 12 26
e 12 28
e 12 34
e 12 39
e 13 14
e 13 15
e 13 19
e 13 43
e 13 46
e 14 16
e 14 21
e 14 32
e 15 19
e 15 29
e 15 43
e 15 46
e 16 21
e 16 25
e 16 35
e 16 37
e 16 45
e 16 47
e 17 21
e 17 24
e 17 27
e 17 33
e 17 36
e 17 38
e 17 42
e 18 22
e 18 23
e 18 29
e 19 31
e 20 25
e 20 41
e 20 57
e 21 24
e 21 27
e 21 32
e 22 23
e 24 27
e 24 33
e 24 36
e 24 38
e 25 45
e 25 47
e 25 50
e 25 57
e 25 60
e 26 28
e 27 33
e 27 36
e 27 38
e 28 34
e 28 39
e 29 43
e 30 31
e 30 44
e 30 48
e 33 36
e 33 38
e 34 39
e 35 37
e 36 38
e 40 41
e 43 46
e 44 48
e 45 47
e 49 52
e 50 60
e 51 59
e 53 58
e 54 56
e 55 61
e 62 64
e 63 67
e 65 66
